(declare-fun e () String)
(declare-fun c () String)
(declare-fun g () String)
(declare-fun b () String)
(declare-fun f () String)
(declare-fun h () String)
(assert (= (str.++ b "hc" h h) (str.++ c "hc" f e "g")))
(assert (= f e))
(assert (= (str.++ b c) (str.++ g "cef")))

(check-sat)
